
Gurobi 8.0.1 (win64, Java) logging started 03/15/19 11:50:58

Academic license - for non-commercial use only

Gurobi 8.0.1 (win64, Java) logging started 03/15/19 11:51:04

Academic license - for non-commercial use only

Gurobi 8.0.1 (win64, Java) logging started 03/15/19 11:51:13

Academic license - for non-commercial use only

Gurobi 8.0.1 (win64, Java) logging started 03/15/19 11:51:13

Academic license - for non-commercial use only

Gurobi 8.0.1 (win64, Java) logging started 03/15/19 11:51:13

Academic license - for non-commercial use only
